&CONTROL
  calculation='scf',
  prefix='calc',
  pseudo_dir='.',
  outdir='.',
  tprnfor=.true.,
  etot_conv_thr=1d-5,
  verbosity='high',
  tstress=.true.
/
&SYSTEM
  ibrav=0,
  celldm(1)=0.90,
  nspin=2,
  nat=14,
  ntyp=3,
  ecutwfc=200d00,
  occupations='smearing',
  smearing='fermi-dirac',
  degauss=0.002,
  input_dft='vdw-df',
  nbnd=65,
  nosym=.true.
  starting_magnetization(1) = 1.0
/
&ELECTRONS
  diagonalization='david',
  electron_maxstep=500,
  startingwfc='random',
/
CELL_PARAMETERS alat
  0.0 10.1370473339769 0.0
  9.61260335675681 0.0 0.0
  0.0 -5.74558061042 -9.87761093623239
ATOMIC_SPECIES
Ni 59 28_Ni_18_1.7_2.2_pbe_n_v1.0.upf
C 12 06_C_4_1.2_1.2_pbe_n_v1.0.upf
O 16 08_O_6_1.2_1.4_pbe_n_v1.0.upf
ATOMIC_POSITIONS crystal
Ni 0.0000000000000000    0.5000000000000000    0.5000000000000000
Ni 0.0000000000000000    0.0000000000000000    0.0000000000000000
C 0.4548810000000001    0.6204870000000002    0.4108289999999999
C 0.5451189999999999    0.1204870000000002    0.0891710000000001
C 0.5451189999999999    0.3795129999999998    0.5891710000000001
C 0.4548810000000001    0.8795129999999998    0.9108289999999999
O 0.8011640000000000    0.2925540000000001    0.6785580000000000
O 0.1988360000000000    0.7925540000000000    0.8214420000000000
O 0.1988360000000000    0.7074459999999999    0.3214420000000000
O 0.8011640000000000    0.2074459999999999    0.1785580000000000
O 0.6424290000000000    0.7156760000000001    0.3662790000000000
O 0.3575710000000000    0.2156760000000001    0.1337210000000000
O 0.3575710000000000    0.2843239999999999    0.6337210000000000
O 0.6424290000000000    0.7843239999999999    0.8662790000000000
K_POINTS automatic
2 2 2 1 1 1
