&CONTROL
  calculation='scf',
  prefix='calc',
  pseudo_dir='.',
  outdir='.',
  tprnfor=.true.,
  etot_conv_thr=1d-5,
  verbosity='high',
  tstress=.true.
/
&SYSTEM
  ibrav=0,
  celldm(1)=1.0,
  nspin=1,
  nat=21,
  ntyp=6,
  ecutwfc=300d00,
  occupations='smearing',
  smearing='fermi-dirac',
  degauss=0.002,
  input_dft='pbe',
  vdw_corr='grimme-d3',
  dftd3_threebody=.true.,
  nbnd=49,
  nosym=.true.
/
&ELECTRONS
  diagonalization='david',
  electron_maxstep=500,
  startingwfc='random',
/
CELL_PARAMETERS alat
  32.0 0.0 0.0
  0.0 26.0 0.0
  0.0 0.0 18.0
ATOMIC_SPECIES
Cl 35 17_Cl_7_1.9_1.9_pbe_n_v1.0.upf
S 32 16_S_6_1.8_1.9_pbe_n_v1.0.upf
O 16 08_O_6_1.2_1.4_pbe_n_v1.0.upf
N 14 07_N_5_1.2_1.4_pbe_n_v1.0.upf
C 12 06_C_4_1.2_1.2_pbe_n_v1.0.upf
H 1 01_H_1_1.0_1.0_pbe_v1.0.upf
ATOMIC_POSITIONS bohr
Cl  2.4624758803D+01   1.1671691358D+01   1.0797525010D+01
S  1.4499495600D+01   9.8134176584D+00   1.0719013108D+01
O  1.4556109373D+01   8.5355658413D+00   8.3100728116D+00
O  1.4560936577D+01   8.3497635435D+00   1.3017501002D+01
N  1.4108628875D+01   1.5513465312D+01   1.0785559204D+01
N  1.1948074488D+01   1.1590383072D+01   1.0783764858D+01
C  1.7057527338D+01   1.1998620340D+01   1.0783806963D+01
C  1.6581279062D+01   1.4606631460D+01   1.0790239398D+01
C  1.1975907175D+01   1.4039004361D+01   1.0789235115D+01
C  1.9533044131D+01   1.1081507377D+01   1.0790297274D+01
C  1.8626873938D+01   1.6297301941D+01   1.0800564829D+01
C  2.1533104787D+01   1.2785025949D+01   1.0797775641D+01
C  2.1088786616D+01   1.5395935440D+01   1.0802027612D+01
C  9.5209661277D+00   1.5465613674D+01   1.0799619812D+01
H  1.3867985975D+01   1.7411557231D+01   1.0800571420D+01
H  1.9874135873D+01   9.0561732460D+00   1.0783750917D+01
H  1.8281059099D+01   1.8328433518D+01   1.0805744136D+01
H  2.2675981397D+01   1.6701158032D+01   1.0806807242D+01
H  9.3729009400D+00   1.6664753998D+01   1.2486236222D+01
H  7.9504222257D+00   1.4128319489D+01   1.0788322551D+01
H  9.3755895224D+00   1.6686926493D+01   9.1281666689D+00
K_POINTS automatic
1 1 1 0 0 0
