C tube
1.0
    8.466832 0.000000 0.000000
    0.000000 8.466832 0.000000
    0.000000 0.000000 2.459501
C
12
direct
0.740230460538131  0.5  0
0.684027209363144  0.6544171635032  0
0.379884769730936  0.708045681588856  0
0.274257208944321  0.582163656544442  0
0.379884769730936  0.291954318411146  0
0.541715581692533  0.263419179952358  0
0.620115230269064  0.708045681588856  0.5
0.458284418307467  0.736580820047644  0.5
0.259769539461872  0.5  0.5
0.315972790636854  0.345582836496801  0.5
0.620115230269064  0.291954318411146  0.5
0.725742791055681  0.417836343455558  0.5

