NiC2O4
1.0
   0  5.36429229705189  0
   5.0867686065185  0  0
   0  -3.04042911068022  -5.22700452240265
Ni C O
2 4 8
direct
   0.0000000000000000    0.5000000000000000    0.5000000000000000
   0.0000000000000000    0.0000000000000000    0.0000000000000000
   0.4548810000000001    0.6204870000000002    0.4108289999999999
   0.5451189999999999    0.1204870000000002    0.0891710000000001
   0.5451189999999999    0.3795129999999998    0.5891710000000001
   0.4548810000000001    0.8795129999999998    0.9108289999999999
   0.8011640000000000    0.2925540000000001    0.6785580000000000
   0.1988360000000000    0.7925540000000000    0.8214420000000000
   0.1988360000000000    0.7074459999999999    0.3214420000000000
   0.8011640000000000    0.2074459999999999    0.1785580000000000
   0.6424290000000000    0.7156760000000001    0.3662790000000000
   0.3575710000000000    0.2156760000000001    0.1337210000000000
   0.3575710000000000    0.2843239999999999    0.6337210000000000
   0.6424290000000000    0.7843239999999999    0.8662790000000000
