Ge
1.0
   4.04691322 0.000000 0.000000
   -2.02345661 3.50472966 0.000000
   0.000000 0.000000 11.641894
Ge
2
direct
0  0  0.682371205412036
0.66666666647425  0.333333333887721  0.623257659438873
